>compound Creatine (drop this duplicate)
>formula C4H9N3O2
>parentmass 130.04979
>ionization [M + ?]-
>instrumentation Unknown (LCMS)
>source file:///D:/nile_rat_multiomics/data/processed/11min_nilerat_metab_lib.msp
>quality UNKNOWN
>rt 707.823s

>collision 30 eV
##comments 
##inchikey 
##collision_energy 30.0
##smiles 
##precursor_type 
##precursormz 130.04979
##ionization ESI
##compoundclass 
##ionmode negative
##casno 
##name Creatine (drop this duplicate)
##formula C4 H9 N3 O2
##retentiontime 11.79705
52.8923 907.26
61.9421 686.2
62.3463 667.38
66.0338 2874.99
66.475 824.81
68.0494 4858.11
71.0127 4082.14
73.0284 1819.91
78.0217 780.33
82.0286 2681.5
84.0443 7227.57
86.0236 1811.72
86.4767 767.6
88.0392 72141.02
89.4835 760.09
92.9491 922.81
102.4257 798.63
112.0392 2826.19
128.0313 950.41
128.0341 30568.94
130.0498 49813.41
130.0859 2036.06
130.1058 745.71
130.933 784.36
142.5707 838.45
143.2884 793.27
143.6984 823.16

