>compound Anhydrohexose
>formula C6H10O5
>parentmass 161.04451
>ionization [M + ?]-
>instrumentation Unknown (LCMS)
>source file:///D:/nile_rat_multiomics/data/processed/11min_nilerat_metab_lib.msp
>quality UNKNOWN
>rt 671.4150000000001s

>collision 30 eV
##comments 
##inchikey 
##collision_energy 30.0
##smiles 
##precursor_type 
##precursormz 161.04451
##ionization ESI
##compoundclass 
##ionmode negative
##casno 
##name Anhydrohexose
##formula C6 H10 O5
##retentiontime 11.19025
52.2536 696.35
53.4262 752.35
54.191 699.03
55.1634 772.31
56.6411 764.23
59.0127 899.09
60.2147 745.38
66.6939 883.16
67.5523 688.71
71.0127 2213.05
73.0283 1751.03
73.0578 730.65
82.2503 856.96
83.1738 707.78
85.0283 1247.57
92.9502 825.36
104.2085 729.25
113.0232 1303.34
116.9273 3419.0
118.4484 782.88
119.3246 788.65
124.5364 876.41
125.3537 773.67
131.0334 1330.48
133.8479 819.85
142.9237 934.39
160.9347 1212.26
161.0346 2021.75
161.0444 1570.86
166.2125 873.12
173.4571 821.82

