>compound Pentose sugar
>formula C5H10O5
>parentmass 149.04453
>ionization [M + ?]-
>instrumentation Unknown (LCMS)
>source file:///D:/nile_rat_multiomics/data/processed/11min_nilerat_metab_lib.msp
>quality UNKNOWN
>rt 678.9684000000001s

>collision 30 eV
##comments 
##inchikey 
##collision_energy 30.0
##smiles 
##precursor_type 
##precursormz 149.04453
##ionization ESI
##compoundclass 
##ionmode negative
##casno 
##name Pentose sugar
##formula C5 H10 O5
##retentiontime 11.31614
52.2876 801.27
53.6773 703.09
58.2315 849.29
59.0127 1062.16
60.973 815.6
68.0109 719.34
69.9273 733.85
70.2895 666.8
71.0127 2570.1
71.6279 897.82
73.0284 2070.1
74.2535 911.56
75.2934 869.12
87.0076 1204.59
87.2124 744.75
88.5978 714.26
89.0233 11739.69
90.2988 815.78
99.2588 836.94
100.4215 848.79
102.5285 674.98
104.2116 614.31
107.4937 750.41
113.6775 827.08
119.1041 777.31
121.4052 799.01
124.2059 813.98
127.1543 788.27
131.0339 1026.37
131.1901 784.33
135.5546 752.61
148.9232 957.57
149.0444 3849.99

