>compound N2-Dimethylguanosine part of 11.5 min gang
>formula C12H17N5O5
>parentmass 310.11356
>ionization [M + ?]-
>instrumentation Unknown (LCMS)
>source file:///D:/nile_rat_multiomics/data/processed/11min_nilerat_metab_lib.msp
>quality UNKNOWN
>rt 695.4942000000001s

>collision 30 eV
##comments 
##inchikey 
##collision_energy 30.0
##smiles 
##precursor_type 
##precursormz 310.11356
##ionization ESI
##compoundclass 
##ionmode negative
##casno 
##name N2-Dimethylguanosine part of 11.5 min gang
##formula C12 H17 N5 O5
##retentiontime 11.59157
59.0128 5639.57
71.0127 4221.62
72.22 908.95
79.9453 806.68
84.3861 854.5
88.0392 15549.96
88.152 843.19
89.0233 5934.67
92.9163 854.82
97.8341 826.52
98.0236 983.59
101.0232 2114.7
104.2143 931.47
110.0166 900.97
113.0232 2111.78
119.0338 3049.37
123.5354 748.39
126.1183 895.27
128.0341 1350.84
130.0498 29990.94
130.0611 7701.9
179.0549 1285.95
189.9663 915.2
210.3715 862.69
214.8543 4926.46
214.861 6342.73
233.9432 915.82
288.1575 823.14
288.7834 901.65
301.9508 1154.66
303.9995 3819.46
316.2267 850.75

