>compound Levetiracetam
>formula C8H14N2O2
>parentmass 169.09726
>ionization [M + ?]-
>instrumentation Unknown (LCMS)
>source file:///D:/nile_rat_multiomics/data/processed/11min_nilerat_metab_lib.msp
>quality UNKNOWN
>rt 711.6899999999999s

>collision 30 eV
##comments 
##inchikey 
##collision_energy 30.0
##smiles 
##precursor_type 
##precursormz 169.09726
##ionization ESI
##compoundclass 
##ionmode negative
##casno 
##name Levetiracetam
##formula C8 H14 N2 O2
##retentiontime 11.86150
52.0182 1193.59
53.8502 785.28
55.3061 779.38
55.403 748.3
56.4222 692.9
56.4384 820.51
57.3992 949.31
66.0339 991.94
71.0128 1859.03
71.9955 850.95
72.5839 860.07
74.3994 855.07
75.2924 747.97
75.4516 792.11
80.1491 770.38
83.4266 765.09
88.0392 8810.08
88.5067 684.25
89.6271 676.73
94.6955 827.62
101.7142 686.07
103.5411 832.82
105.9052 728.02
125.096 841.25
129.4382 762.1
129.8959 735.87
130.1541 818.7
136.3869 768.66
144.2011 792.41
150.3886 914.42
153.8209 742.09
169.0972 38495.35
176.01 794.46
182.0266 793.71
189.5825 734.15

