>compound Acrylic acid
>formula C3H4O2
>parentmass 71.01277
>ionization [M + ?]-
>instrumentation Unknown (LCMS)
>source file:///D:/nile_rat_multiomics/data/processed/11min_nilerat_metab_lib.msp
>quality UNKNOWN
>rt 707.5206s

>collision 30 eV (corrected 30 eV)
##comments 
##inchikey 
##collision_energy 30.0
##smiles 
##precursor_type 
##precursormz 71.01277
##ionization ESI
##compoundclass 
##ionmode negative
##casno 
##name Acrylic acid
##formula C3 H4 O2
##retentiontime 11.79201
51.1463 694.9
51.4871 694.83
51.7104 794.16
53.3029 661.17
53.6308 636.87
56.0039 737.05
59.0603 674.79
59.1577 749.82
62.0243 715.87
62.1637 638.21
62.9745 737.18
68.2872 948.7
68.2882 930.91
69.5811 692.94
70.8388 714.03
71.0128 21471.07
80.6176 767.47
80.8222 702.96

