>compound 4-oxoproline
>formula C5H9NO4
>parentmass 128.03423
>ionization [M + ?]-
>instrumentation Unknown (LCMS)
>source file:///D:/nile_rat_multiomics/data/processed/11min_nilerat_metab_lib.msp
>quality UNKNOWN
>rt 687.2934s

>collision 30 eV
##comments 
##inchikey 
##collision_energy 30.0
##smiles 
##precursor_type 
##precursormz 128.03423
##ionization ESI
##compoundclass 
##ionmode negative
##casno 
##name 4-oxoproline
##formula C5 H9 N O4
##retentiontime 11.45489
50.2984 691.12
55.8833 758.19
62.3995 731.51
62.8089 666.41
62.8204 676.44
65.6581 753.21
75.2875 823.8
84.5242 847.42
87.9968 789.96
104.2043 824.87
105.7197 809.1
106.4817 799.43
119.6836 842.14
127.896 1053.06
128.0342 9477.49

