>compound MW_311.13220@RT_11.718
>formula C11H17N7O4
>parentmass 310.12482
>ionization [M + ?]-
>instrumentation Unknown (LCMS)
>source file:///D:/nile_rat_multiomics/data/processed/11min_nilerat_metab_lib.msp
>quality UNKNOWN
>rt 695.64s

>collision 30 eV
##comments 
##inchikey 
##collision_energy 30.0
##smiles 
##precursor_type 
##precursormz 310.12482
##ionization ESI
##compoundclass 
##ionmode negative
##casno 
##name MW_311.13220@RT_11.718
##formula C11 H17 N7 O4
##retentiontime 11.59400
52.466 790.48
53.5857 742.52
54.9443 872.53
58.5577 846.41
59.0127 6718.89
60.3234 758.31
66.8759 870.59
67.1091 831.09
69.1531 932.86
71.0127 4732.8
76.6762 879.05
78.3349 887.08
79.9502 819.19
79.9596 902.21
83.4009 929.05
86.8315 759.23
88.0392 18332.89
89.0232 8692.97
92.8114 945.98
96.4452 823.22
98.0235 1113.52
101.0233 3392.52
104.2093 1074.27
113.0232 2512.62
119.0338 3258.19
128.0341 1476.64
130.0498 30072.35
130.0611 10562.08
146.5938 830.63
149.0983 942.09
153.6549 820.19
161.6527 861.96
166.088 842.09
170.481 913.85
179.0551 1135.06
203.7367 917.95
209.1436 892.94
218.6621 5030.22
233.1272 853.64
279.0091 842.02
303.9983 921.52
304.0067 1813.93
305.5896 909.75

