>compound MW_158.06810@RT_11.366
>formula C6H10N2O3
>parentmass 157.1223
>ionization [M + ?]-
>instrumentation Unknown (LCMS)
>source file:///D:/nile_rat_multiomics/data/processed/11min_nilerat_metab_lib.msp
>quality UNKNOWN
>rt 687.9846s

>collision 30 eV
##comments 
##inchikey 
##collision_energy 30.0
##smiles 
##precursor_type 
##precursormz 157.12230
##ionization ESI
##compoundclass 
##ionmode negative
##casno 
##name MW_158.06810@RT_11.366
##formula C6 H10 N2 O3
##retentiontime 11.46641
54.3632 814.27
56.8697 736.47
57.7839 829.82
58.3812 928.93
58.5078 784.74
59.0127 20274.07
65.32 695.09
65.6874 743.41
68.2877 1128.78
68.4005 748.62
68.6806 726.81
69.1914 675.43
72.8161 836.15
73.2925 785.52
74.9758 784.91
75.0077 2135.19
75.064 823.13
75.877 807.85
77.9126 738.29
82.4127 780.14
83.4217 916.13
85.0282 865.0
86.2388 815.83
90.2313 842.71
92.7885 735.78
92.9481 990.59
97.0395 1947.74
113.0232 2158.24
113.0596 10314.33
113.0709 5044.3
113.096 2299.76
116.8193 730.02
125.2599 842.47
128.0342 994.11
129.0543 953.0
129.0659 858.19
130.7704 769.01
131.4971 801.59
133.8438 922.91
153.5468 829.2
153.6466 963.48
157.0499 4657.42
157.0608 103485.1
157.0859 4060.79
157.1223 23875.68
157.8709 768.41
167.4453 804.48
179.4352 811.44

