>compound MW_548.17488@RT_11.519
>formula C28H30N4O4P2
>parentmass 547.16821
>ionization [M + ?]-
>instrumentation Unknown (LCMS)
>source file:///D:/nile_rat_multiomics/data/processed/11min_nilerat_metab_lib.msp
>quality UNKNOWN
>rt 683.3526s

>collision 30 eV (corrected 30 eV)
##comments 
##inchikey 
##collision_energy 30.0
##smiles 
##precursor_type 
##precursormz 547.16821
##ionization ESI
##compoundclass 
##ionmode negative
##casno 
##name MW_548.17488@RT_11.519
##formula C28 H30 N4 O4 P2
##retentiontime 11.38921
50.9269 921.08
55.6748 989.41
56.8678 1023.11
57.7566 948.39
63.6077 991.4
65.152 997.2
68.2911 1291.1
71.851 945.68
78.0462 1075.85
87.1745 1025.69
92.9521 1140.71
96.9327 971.02
98.3394 1350.12
103.7806 1063.63
113.0232 1710.66
125.9058 965.23
127.0196 1052.9
130.4104 994.97
140.7699 1025.78
149.7064 1176.42
153.6555 965.69
157.0304 1615.01
169.03 1233.71
187.0411 2340.0
213.0886 1133.61
213.7705 10990.34
213.777 6429.0
213.7805 1185.06
247.0624 2970.0
293.8495 991.01
301.6339 1053.78
304.0053 6134.69
307.0833 2801.74
324.3774 979.69
331.9074 1066.15
367.1044 30039.41
372.3932 1115.64
448.6772 1115.74
567.2316 1102.61

