>compound MW_270.09455@RT_11.461
>formula C4H15N8O4P
>parentmass 269.08746
>ionization [M + ?]-
>instrumentation Unknown (LCMS)
>source file:///D:/nile_rat_multiomics/data/processed/11min_nilerat_metab_lib.msp
>quality UNKNOWN
>rt 666.8574s

>collision 30 eV
##comments 
##inchikey 
##collision_energy 30.0
##smiles 
##precursor_type 
##precursormz 269.08746
##ionization ESI
##compoundclass 
##ionmode negative
##casno 
##name MW_270.09455@RT_11.461
##formula C4 H15 N8 O4 P
##retentiontime 11.11429
52.7865 820.24
55.3175 864.85
56.8785 875.77
58.3817 749.93
60.0803 766.16
65.4011 762.54
66.9582 1191.73
68.2906 809.21
68.5657 683.43
69.337 713.28
71.5809 809.52
75.0918 936.74
80.0377 752.71
82.7853 770.98
83.4241 1167.37
84.8648 853.86
86.7907 900.03
88.2133 909.15
89.0233 3195.84
92.151 937.15
92.95 1123.1
92.9516 1214.33
93.2343 762.96
104.2077 964.3
106.1303 838.93
110.6995 894.16
111.5445 884.0
133.8487 1128.11
138.9981 770.34
148.9848 803.35
151.0262 959.09
153.6541 913.74
158.8803 894.18
164.403 905.14
171.9964 934.97
213.8592 4149.29
213.8657 10037.78
214.6429 1023.52
243.2154 928.96
249.3178 1001.96
269.2116 12603.58
269.2481 7941.24

