>compound MW_223.06843@RT_11.576
>formula C7H13NO7
>parentmass 222.06099
>ionization [M + ?]-
>instrumentation Unknown (LCMS)
>source file:///D:/nile_rat_multiomics/data/processed/11min_nilerat_metab_lib.msp
>quality UNKNOWN
>rt 682.6758s

>collision 30 eV
##comments 
##inchikey 
##collision_energy 30.0
##smiles 
##precursor_type 
##precursormz 222.06099
##ionization ESI
##compoundclass 
##ionmode negative
##casno 
##name MW_223.06843@RT_11.576
##formula C7 H13 N O7
##retentiontime 11.37793
50.0661 885.97
53.6434 779.05
53.7376 824.1
54.0147 701.35
54.3712 717.67
54.7084 855.7
59.0128 917.6
59.7109 867.26
61.9616 774.67
62.2094 825.04
63.3745 714.71
70.2328 762.31
76.2746 821.24
76.5679 858.39
76.6321 877.83
78.7285 745.84
92.9439 741.19
94.3268 756.43
99.3908 870.17
100.7825 869.84
105.6276 732.87
113.5735 805.36
117.392 926.47
122.4264 847.26
123.9007 946.0
133.8395 1038.98
147.4418 858.25
152.0573 742.06
170.5987 896.63
178.1894 946.44
213.9457 9511.4
213.9522 3852.89
240.7017 861.43

