>compound 2-C-methylerythritol 4-phosphate
>formula C5H13O7P
>parentmass 215.03198
>ionization [M + ?]-
>instrumentation Unknown (LCMS)
>source file:///D:/nile_rat_multiomics/data/processed/11min_nilerat_metab_lib.msp
>quality UNKNOWN
>rt 719.9742s

>collision 30 eV
##comments 
##inchikey 
##collision_energy 30.0
##smiles 
##precursor_type 
##precursormz 215.03198
##ionization ESI
##compoundclass 
##ionmode negative
##casno 
##name 2-C-methylerythritol 4-phosphate
##formula C5 H13 O7 P
##retentiontime 11.99957
50.2125 791.26
50.5058 891.61
51.5146 913.4
52.9538 755.98
53.3855 828.57
59.0128 790.1
62.0105 771.13
68.3528 749.56
78.4294 710.86
83.4186 873.0
87.4478 793.99
88.0393 1496.35
89.0203 743.13
89.0234 995.06
92.9449 1029.03
101.8539 792.63
104.2016 919.62
118.05 968.8
131.2131 816.9
131.358 740.9
143.2296 948.82
145.5626 764.91
167.6146 851.19
174.9763 871.8
175.3058 890.63
178.1952 796.22
200.8633 758.2
214.9135 4764.91
220.9723 1930.63
220.9786 1730.9
231.0257 794.1

