>compound MW_217.04256@RT_11.613
>formula C9H13ClNOP
>parentmass 216.03545
>ionization [M + ?]-
>instrumentation Unknown (LCMS)
>source file:///D:/nile_rat_multiomics/data/processed/11min_nilerat_metab_lib.msp
>quality UNKNOWN
>rt 700.0458s

>collision 30 eV
##comments 
##inchikey 
##collision_energy 30.0
##smiles 
##precursor_type 
##precursormz 216.03545
##ionization ESI
##compoundclass 
##ionmode negative
##casno 
##name MW_217.04256@RT_11.613
##formula C9 H13 Cl N O P
##retentiontime 11.66743
51.0661 825.74
51.9123 771.42
59.0127 8196.87
59.5781 703.5
60.5146 780.7
61.1736 693.95
62.5932 719.11
67.8268 760.81
68.3319 821.26
68.3614 708.08
70.7768 756.73
71.089 896.35
71.587 775.18
79.6907 817.23
80.3842 796.32
82.3035 685.1
83.4066 805.84
85.405 696.3
89.5284 778.13
90.5732 742.73
97.7708 749.1
100.3108 790.72
101.0236 924.36
101.7558 731.02
102.9835 981.99
121.1617 807.53
124.1871 911.23
125.6334 793.99
142.5402 819.67
148.0529 802.47
174.9916 6097.22
209.2239 929.79
209.7733 810.27
210.1077 901.85
217.0022 1773.26
223.171 881.27
223.1841 2486.37
224.4489 789.58
228.8116 993.75

