>compound MW_158.06810@RT_11.366
>formula C6H10N2O3
>parentmass 157.06084
>ionization [M + ?]-
>instrumentation Unknown (LCMS)
>source file:///D:/nile_rat_multiomics/data/processed/11min_nilerat_metab_lib.msp
>quality UNKNOWN
>rt 670.6242s

>collision 30 eV
##comments 
##inchikey 
##collision_energy 30.0
##smiles 
##precursor_type 
##precursormz 157.06084
##ionization ESI
##compoundclass 
##ionmode negative
##casno 
##name MW_158.06810@RT_11.366
##formula C6 H10 N2 O3
##retentiontime 11.17707
50.2083 799.64
50.7937 735.75
52.4359 761.55
55.1213 779.53
55.3185 721.19
57.1199 834.96
58.0286 1013.91
58.561 754.45
59.0128 16771.02
60.0761 803.46
75.0076 2037.75
77.1423 717.78
91.9215 904.32
92.0243 906.48
92.4311 884.5
92.9455 890.45
92.9472 836.62
93.9494 848.28
97.0395 1841.15
107.5119 767.74
113.0596 4669.33
113.0708 2890.25
113.0962 1112.33
117.6354 865.36
125.9972 712.84
139.0753 928.29
146.719 729.64
157.0509 4634.88
157.0608 81979.59
157.086 4914.85
157.1223 24167.25
164.4006 743.97
165.8242 771.54
169.1605 793.36
179.3076 875.03

