>compound Acrylic acid
>formula C3H4O2
>parentmass 71.01276
>ionization [M + ?]-
>instrumentation Unknown (LCMS)
>source file:///D:/nile_rat_multiomics/data/processed/11min_nilerat_metab_lib.msp
>quality UNKNOWN
>rt 670.9176s

>collision 30 eV (corrected 30 eV)
##comments 
##inchikey 
##collision_energy 30.0
##smiles 
##precursor_type 
##precursormz 71.01276
##ionization ESI
##compoundclass 
##ionmode negative
##casno 
##name Acrylic acid
##formula C3 H4 O2
##retentiontime 11.18196
50.7139 800.84
51.5736 660.35
52.2856 767.81
53.0615 865.05
53.7741 723.45
53.8937 738.97
58.3824 768.03
60.5806 690.24
61.685 712.45
63.4323 664.44
64.1267 738.85
68.2888 980.95
71.0127 6319.29
73.3461 688.55
77.2188 686.52
86.4667 668.04
86.9547 763.33
87.6411 667.66

