>compound Secobarbital
>formula C12H18N2O3
>parentmass 237.12364
>ionization [M + ?]-
>instrumentation Unknown (LCMS)
>source file:///D:/nile_rat_multiomics/data/processed/11min_nilerat_metab_lib.msp
>quality UNKNOWN
>rt 679.5906s

>collision 30 eV
##comments 
##inchikey 
##collision_energy 30.0
##smiles 
##precursor_type 
##precursormz 237.12364
##ionization ESI
##compoundclass 
##ionmode negative
##casno 
##name Secobarbital
##formula C12 H18 N2 O3
##retentiontime 11.32651
50.1055 744.1
53.7093 873.31
57.523 766.83
59.0128 1369.93
59.3921 803.16
63.011 850.0
63.3186 805.63
63.7392 783.2
64.6072 860.32
67.468 767.78
69.5968 729.35
78.8949 942.28
83.2342 911.33
84.9524 777.8
88.9736 759.96
90.8464 673.97
93.0447 1197.68
95.7057 742.03
98.0933 777.96
102.2243 912.51
105.0669 842.83
125.5183 1000.56
130.6195 893.31
150.1279 1155.29
178.6016 858.29
192.9409 898.91
193.1336 2951.79
199.3704 851.91
199.4862 812.4
217.8736 4748.91
217.8799 1636.25
218.2681 799.24
228.3382 882.63
237.1238 34754.77
238.5848 833.74

