>compound MW_338.13180@RT_11.380
>formula C12H22N2O9
>parentmass 337.12442
>ionization [M + ?]-
>instrumentation Unknown (LCMS)
>source file:///D:/nile_rat_multiomics/data/processed/11min_nilerat_metab_lib.msp
>quality UNKNOWN
>rt 671.5265999999999s

>collision 30 eV
##comments 
##inchikey 
##collision_energy 30.0
##smiles 
##precursor_type 
##precursormz 337.12442
##ionization ESI
##compoundclass 
##ionmode negative
##casno 
##name MW_338.13180@RT_11.380
##formula C12 H22 N2 O9
##retentiontime 11.19211
53.5449 917.07
59.0127 1983.99
60.2011 868.31
61.0657 939.7
62.1984 800.59
66.2569 784.63
66.6003 822.47
71.7593 897.48
72.2993 844.9
75.2866 834.33
89.0233 1759.92
91.2861 924.21
92.9473 1129.7
101.6007 940.46
113.0231 1046.64
150.765 930.92
153.6484 936.52
157.0608 26768.58
194.7539 873.46
206.8421 886.83
214.4641 12189.4
214.4704 1345.58
221.5184 899.58
254.9061 1443.77
261.0367 1002.38
283.1996 853.17
304.0033 4665.24
327.2229 993.98
332.0617 884.62
337.2054 921.93

