>compound MW_144.04120@RT_11.579
>formula C6H8O4
>parentmass 143.07025
>ionization [M + ?]-
>instrumentation Unknown (LCMS)
>source file:///D:/nile_rat_multiomics/data/processed/11min_nilerat_metab_lib.msp
>quality UNKNOWN
>rt 646.2186s

>collision 30 eV
##comments 
##inchikey 
##collision_energy 30.0
##smiles 
##precursor_type 
##precursormz 143.07025
##ionization ESI
##compoundclass 
##ionmode negative
##casno 
##name MW_144.04120@RT_11.579
##formula C6 H8 O4
##retentiontime 10.77031
56.929 769.24
59.0127 811.03
61.9872 1577.78
62.6598 772.7
63.4349 771.79
63.7423 679.58
64.6671 802.6
66.4345 823.19
70.2985 841.15
75.2913 788.6
78.1177 761.51
83.5575 761.24
87.1243 725.3
94.5957 770.65
100.3552 811.32
116.1209 709.4
136.2129 725.57
136.6733 725.04
142.9237 2187.03
143.0352 1982.09
149.2353 837.9

