>compound MW_218.03631@RT_11.610
>formula C9H7N4OP
>parentmass 216.9319
>ionization [M + ?]-
>instrumentation Unknown (LCMS)
>source file:///D:/nile_rat_multiomics/data/processed/11min_nilerat_metab_lib.msp
>quality UNKNOWN
>rt 700.5138000000001s

>collision 30 eV
##comments 
##inchikey 
##collision_energy 30.0
##smiles 
##precursor_type 
##precursormz 216.93190
##ionization ESI
##compoundclass 
##ionmode negative
##casno 
##name MW_218.03631@RT_11.610
##formula C9 H7 N4 O P
##retentiontime 11.67523
54.9315 759.8
56.4933 725.97
57.2977 753.78
57.6278 855.77
59.0128 5572.72
68.2925 977.17
68.2945 781.14
70.6112 848.42
71.0128 1063.71
72.0751 818.28
73.6041 864.24
81.5538 901.5
89.0233 1872.5
91.7626 892.65
98.6419 784.56
101.7131 827.79
102.4394 712.97
103.2455 940.74
104.2108 924.11
108.9459 840.06
113.0231 998.47
117.6451 961.4
119.0337 1336.79
120.6387 949.67
120.987 773.7
129.9101 869.81
138.3054 809.56
145.097 974.2
147.9323 803.6
165.2356 833.34
171.1017 932.03
174.9914 4772.01
187.7235 807.98
202.9137 805.02
217.0021 3719.13
217.0288 1370.56
217.1075 1242.72
217.1185 3940.29
220.1192 3426.36
228.6623 903.89

