>compound Creatine (drop this duplicate)
>formula C4H9N3O2
>parentmass 130.06107
>ionization [M + ?]-
>instrumentation Unknown (LCMS)
>source file:///D:/nile_rat_multiomics/data/processed/11min_nilerat_metab_lib.msp
>quality UNKNOWN
>rt 695.9838s

>collision 30 eV
##comments 
##inchikey 
##collision_energy 30.0
##smiles 
##precursor_type 
##precursormz 130.06107
##ionization ESI
##compoundclass 
##ionmode negative
##casno 
##name Creatine (drop this duplicate)
##formula C4 H9 N3 O2
##retentiontime 11.59973
51.3799 743.1
53.7276 750.98
55.0118 742.61
55.3507 644.21
59.0668 860.6
60.3076 753.13
60.3424 660.9
63.4405 690.17
64.9 686.34
65.585 780.03
67.2637 733.31
68.0494 850.58
68.8986 738.77
69.2964 713.01
71.0127 1146.98
73.0838 685.96
74.481 817.01
84.0444 1844.56
86.0602 836.3
87.6 855.57
87.981 780.28
88.0392 21195.75
89.8608 738.05
102.9053 887.65
128.0342 8381.98
130.0498 14179.56
130.0861 2982.1
145.0653 878.35

