>compound MW_350.16812@RT_11.589
>formula C10H22N8O6
>parentmass 349.16092
>ionization [M + ?]-
>instrumentation Unknown (LCMS)
>source file:///D:/nile_rat_multiomics/data/processed/11min_nilerat_metab_lib.msp
>quality UNKNOWN
>rt 679.1496s

>collision 30 eV (corrected 30 eV)
##comments 
##inchikey 
##collision_energy 30.0
##smiles 
##precursor_type 
##precursormz 349.16092
##ionization ESI
##compoundclass 
##ionmode negative
##casno 
##name MW_350.16812@RT_11.589
##formula C10 H22 N8 O6
##retentiontime 11.31916
50.9671 979.19
51.4766 1142.18
56.8738 947.04
58.8641 821.25
59.9976 1060.13
60.4869 851.37
63.1841 766.27
63.6987 782.14
63.764 870.94
66.4625 825.24
66.7211 874.56
71.0127 1271.62
72.1171 956.67
72.2182 855.8
72.3804 853.4
72.9173 892.95
74.796 855.49
83.1888 837.27
92.9336 865.69
115.7333 886.58
117.643 1010.75
129.0297 888.78
134.8456 853.59
161.8178 930.08
169.0973 30280.3
184.3271 1025.6
219.7654 1879.35
219.772 2459.8
223.2154 907.1
254.1778 893.1
254.9724 903.08
277.2774 928.28
277.4174 912.58
278.1679 883.12
286.7974 977.78
315.0186 894.45
331.3906 1067.36
345.7285 895.0

