>compound MW_243.05843@RT_11.536
>formula C6H13NO9
>parentmass 242.05093
>ionization [M + ?]-
>instrumentation Unknown (LCMS)
>source file:///D:/nile_rat_multiomics/data/processed/11min_nilerat_metab_lib.msp
>quality UNKNOWN
>rt 683.3952s

>collision 30 eV
##comments 
##inchikey 
##collision_energy 30.0
##smiles 
##precursor_type 
##precursormz 242.05093
##ionization ESI
##compoundclass 
##ionmode negative
##casno 
##name MW_243.05843@RT_11.536
##formula C6 H13 N O9
##retentiontime 11.38992
56.9267 769.86
61.9873 5370.18
67.4078 874.09
67.7553 895.23
75.2858 1092.0
75.8632 883.17
77.2387 853.01
80.0649 830.11
82.835 906.57
83.0106 803.36
85.9931 753.58
87.8275 784.09
102.3621 896.05
104.2003 693.76
106.3136 811.46
117.5667 967.89
121.5335 876.05
189.1879 775.74
209.7138 795.02
218.6042 1835.15
218.6107 4084.68
227.5842 912.63
242.1029 823.3
242.2071 857.63
242.2199 1412.74
260.2934 896.4

