>compound MW_256.07882@RT_11.432
>formula C8H16O9
>parentmass 255.07146
>ionization [M + ?]-
>instrumentation Unknown (LCMS)
>source file:///D:/nile_rat_multiomics/data/processed/11min_nilerat_metab_lib.msp
>quality UNKNOWN
>rt 674.9802s

>collision 30 eV
##comments 
##inchikey 
##collision_energy 30.0
##smiles 
##precursor_type 
##precursormz 255.07146
##ionization ESI
##compoundclass 
##ionmode negative
##casno 
##name MW_256.07882@RT_11.432
##formula C8 H16 O9
##retentiontime 11.24967
58.89 950.69
59.787 810.25
62.2959 889.25
65.5533 867.84
67.2607 774.6
70.4687 821.75
72.527 771.67
73.8534 812.68
75.0076 4654.69
78.251 835.05
80.8684 764.74
81.5892 824.4
83.1857 809.07
86.4629 826.62
88.155 815.63
89.0232 845.41
90.6163 800.17
102.4687 973.67
102.5444 850.17
103.2129 769.36
110.2174 736.75
117.6396 971.08
122.0632 852.46
125.0839 1008.48
137.6355 801.42
147.5559 915.03
154.9463 5515.2
157.0607 1911.16
162.698 904.62
172.9569 3887.17
173.0921 4796.79
178.2025 955.67
183.4774 865.52
195.0744 1053.5
195.3483 820.23
201.4016 775.96
206.16 822.99
216.8185 740.24
220.5333 1986.49
220.5395 1266.23
222.9398 828.44
223.1329 884.33
253.0841 904.72
254.9058 1689.92
255.2323 132005.3

