>compound Anhydrohexose
>formula C6H10O5
>parentmass 161.04454
>ionization [M + ?]-
>instrumentation Unknown (LCMS)
>source file:///D:/nile_rat_multiomics/data/processed/11min_nilerat_metab_lib.msp
>quality UNKNOWN
>rt 707.8548s

>collision 30 eV
##comments 
##inchikey 
##collision_energy 30.0
##smiles 
##precursor_type 
##precursormz 161.04454
##ionization ESI
##compoundclass 
##ionmode negative
##casno 
##name Anhydrohexose
##formula C6 H10 O5
##retentiontime 11.79758
58.7964 709.26
58.8655 697.26
59.0128 5904.27
59.5287 730.35
61.186 754.48
69.254 855.18
69.267 698.08
69.6534 772.08
71.0128 14178.78
73.0284 6312.88
75.2846 1202.1
83.0128 916.47
85.0284 12072.47
85.7922 799.11
87.0076 1166.59
89.0233 1164.88
89.4986 748.71
92.6412 790.41
95.0126 2887.15
97.8718 796.94
98.7192 694.03
101.0231 1545.69
102.9782 774.69
106.5073 740.05
108.4216 745.48
108.575 822.6
112.6441 817.27
113.0233 6214.27
116.4043 897.86
117.6324 920.08
118.726 844.56
118.9794 1245.44
124.0403 784.24
128.584 808.92
131.0338 3286.81
132.995 2546.2
134.8801 832.56
139.4527 845.77
143.0339 938.26
153.6421 1056.9
154.1958 767.73
160.9901 2099.64
161.0346 1911.26
161.0446 6846.6
164.4772 786.91
164.481 705.63
170.0962 751.33
174.047 809.51
174.6693 704.99

