>compound MW_402.08200@RT_11.572
>formula C16H15N6O5P
>parentmass 401.07458
>ionization [M + ?]-
>instrumentation Unknown (LCMS)
>source file:///D:/nile_rat_multiomics/data/processed/11min_nilerat_metab_lib.msp
>quality UNKNOWN
>rt 682.8234s

>collision 30 eV (corrected 30 eV)
##comments 
##inchikey 
##collision_energy 30.0
##smiles 
##precursor_type 
##precursormz 401.07458
##ionization ESI
##compoundclass 
##ionmode negative
##casno 
##name MW_402.08200@RT_11.572
##formula C16 H15 N6 O5 P
##retentiontime 11.38039
52.9409 1017.6
59.0127 3455.35
71.0128 2410.45
81.9565 900.76
86.9578 905.24
87.5256 999.74
89.0233 3358.44
92.9392 1098.32
94.9795 2889.34
95.6544 808.96
97.0284 2875.12
101.0232 2780.01
113.0232 5562.08
118.9794 9583.28
125.0233 6601.23
129.0925 925.57
136.9902 979.65
143.034 1672.9
144.995 1393.44
148.99 5812.88
159.9979 885.31
160.9901 30031.78
163.0057 2105.42
166.1119 974.3
172.9902 8587.41
179.0006 3083.01
184.9902 2283.92
191.0007 2828.08
193.9214 892.48
197.7871 912.97
203.0009 9384.38
210.2068 1004.11
218.8982 1872.95
218.9048 3550.1
221.0115 48778.94
240.9612 938.77
241.6738 1102.79
249.1028 997.27
263.0222 2173.13
293.0331 1615.75
304.0002 2283.43
306.725 940.88
323.0433 3871.39
383.0642 24041.1
401.0744 8229.32

