>compound MW_240.08375@RT_11.564
>formula C5H8N10O2
>parentmass 239.06429
>ionization [M + ?]-
>instrumentation Unknown (LCMS)
>source file:///D:/nile_rat_multiomics/data/processed/11min_nilerat_metab_lib.msp
>quality UNKNOWN
>rt 675.3522s

>collision 30 eV
##comments 
##inchikey 
##collision_energy 30.0
##smiles 
##precursor_type 
##precursormz 239.06429
##ionization ESI
##compoundclass 
##ionmode negative
##casno 
##name MW_240.08375@RT_11.564
##formula C5 H8 N10 O2
##retentiontime 11.25587
52.0448 763.56
53.7116 845.96
58.6406 882.65
59.0127 1404.61
61.0438 719.55
62.5392 810.81
70.793 1002.79
74.3859 931.95
74.5958 724.89
75.1849 682.37
75.2833 1163.72
75.9696 800.67
83.4158 1130.46
83.9535 861.63
84.2631 888.39
84.2986 801.34
97.7875 858.96
104.0312 797.06
104.1979 1265.1
111.3453 863.68
126.0912 7753.53
126.2957 882.2
157.0608 59721.27
179.5656 850.71
187.8955 789.58
194.5871 782.12
199.4415 880.27
209.1193 802.35
214.2971 13348.65
215.948 761.13
222.9079 817.78
225.5902 913.4
225.7764 910.09
239.0515 1214.37
239.0654 2324.95
239.1393 10695.75
242.214 837.56
251.0509 850.71
259.5361 905.63

