>compound MW_240.08375@RT_11.564
>formula C5H8N10O2
>parentmass 239.07661
>ionization [M + ?]-
>instrumentation Unknown (LCMS)
>source file:///D:/nile_rat_multiomics/data/processed/11min_nilerat_metab_lib.msp
>quality UNKNOWN
>rt 687.2303999999999s

>collision 30 eV
##comments 
##inchikey 
##collision_energy 30.0
##smiles 
##precursor_type 
##precursormz 239.07661
##ionization ESI
##compoundclass 
##ionmode negative
##casno 
##name MW_240.08375@RT_11.564
##formula C5 H8 N10 O2
##retentiontime 11.45384
50.9058 868.44
51.8584 858.93
52.8012 704.13
52.9683 712.3
56.5505 645.72
56.9296 850.71
57.9167 792.06
58.714 892.2
59.0127 1036.56
63.0313 736.12
63.2164 760.62
64.6692 751.23
65.1833 822.21
65.2352 680.81
69.4985 817.0
83.2163 937.31
83.4239 973.96
86.1663 799.18
94.6263 756.05
98.1442 989.99
100.2087 835.41
109.518 861.06
126.0913 9914.44
150.6653 806.5
157.0608 65092.05
160.6856 845.82
160.9756 860.05
179.448 1000.7
187.7499 894.65
208.8379 938.09
223.0275 1164.84
223.1759 936.14
223.1813 2095.96
239.0649 3131.16
239.1106 1407.02
239.1394 13128.54
251.7464 904.36

