>compound Azelaic acid
>formula C9H16O4
>parentmass 187.09665
>ionization [M + ?]-
>instrumentation Unknown (LCMS)
>source file:///D:/nile_rat_multiomics/data/processed/11min_nilerat_metab_lib.msp
>quality UNKNOWN
>rt 686.9724s

>collision 30 eV
##comments 
##inchikey 
##collision_energy 30.0
##smiles 
##precursor_type 
##precursormz 187.09665
##ionization ESI
##compoundclass 
##ionmode negative
##casno 
##name Azelaic acid
##formula C9 H16 O4
##retentiontime 11.44954
53.3183 917.81
58.1877 757.45
64.0998 731.78
66.7295 966.78
71.0127 1383.79
75.9391 804.53
77.435 824.6
83.425 1034.35
85.0091 782.38
86.6534 791.75
88.3785 819.81
89.7602 897.37
91.4151 843.43
93.2445 803.9
97.0648 2169.31
104.2084 1028.4
110.7434 895.28
114.175 823.66
122.3447 776.08
123.0801 815.99
125.096 37221.52
127.0195 2282.05
129.6225 872.27
132.6647 786.63
141.3589 887.51
143.0703 1550.1
144.4248 729.25
152.399 828.25
153.0525 770.71
157.0302 1719.01
162.7442 813.07
165.2462 753.96
167.3284 906.88
168.6545 817.35
169.0858 1244.97
170.2823 788.66
171.4337 759.33
183.4315 1021.42
187.0503 1273.67
187.0606 1019.31
187.0966 18633.51
187.1328 1123.22
190.6573 904.01

