>compound 3-O-feruloyl-D-quinic acid
>formula C17H20O9
>parentmass 367.10425
>ionization [M + ?]-
>instrumentation Unknown (LCMS)
>source file:///D:/nile_rat_multiomics/data/processed/11min_nilerat_metab_lib.msp
>quality UNKNOWN
>rt 666.1265999999999s

>collision 30 eV (corrected 30 eV)
##comments 
##inchikey 
##collision_energy 30.0
##smiles 
##precursor_type 
##precursormz 367.10425
##ionization ESI
##compoundclass 
##ionmode negative
##casno 
##name 3-O-feruloyl-D-quinic acid
##formula C17 H20 O9
##retentiontime 11.10211
50.561 820.84
54.6374 912.27
57.1435 870.29
58.7406 859.84
62.5889 844.45
71.0127 3010.31
75.2868 1032.89
78.6771 1021.35
83.4206 1355.42
85.009 3340.58
85.0284 1453.02
89.0233 1049.14
92.947 1071.72
93.1967 1039.93
113.0232 10479.52
115.0195 2175.78
116.9848 1058.74
125.4041 854.61
126.1488 877.45
127.0197 2039.44
139.2814 870.75
142.4403 861.32
145.0301 4057.27
155.0783 838.35
157.0303 7188.99
168.7152 924.32
169.03 1864.14
183.21 1029.18
187.0409 12035.72
193.5552 872.99
203.0508 3471.85
205.0515 3662.03
214.1891 3201.42
214.1955 11495.68
217.0515 2638.82
238.8587 921.74
247.0624 13013.35
277.0727 5191.26
285.0552 1146.25
296.6679 928.58
304.0059 4472.86
307.0837 11359.15
339.3574 906.39
341.0817 1022.83
361.8571 1089.0
367.1043 59820.21
367.3578 1247.81

